/*********************************************
 * OPL 12.6.0.0 Data
 * Author: Adrian Rodriguez Bazaga, Pau Rodriguez Esmerats
 * Creation Date: 06/12/2017 at 23:03:10
 *********************************************/

nNurses=273;
maxConsec=2;
maxPresence=7;
maxHours=5;
minHours=1;
hours=24;
demand= [60 55 78 79 55 78 79 57 50 23 8 5 11 8 12 6 8 4 4 3 33 61 29 64  ];
